<number of tasks>
50

<cycle time>
1000

<order strength>
0.896


<task times>
1 192
2 169
3 245
4 509
5 263
6 104
7 151
8 123
9 289
10 44
11 111
12 551
13 172
14 65
15 127
16 181
17 242
18 458
19 39
20 96
21 286
22 278
23 91
24 328
25 156
26 203
27 165
28 281
29 117
30 524
31 47
32 142
33 183
34 323
35 365
36 33
37 99
38 53
39 91
40 116
41 65
42 60
43 471
44 459
45 47
46 189
47 210
48 107
49 93
50 124

<precedence relations>
1,6
1,7
2,5
2,6
2,7
3,5
3,6
3,7
4,5
4,6
4,7
5,8
5,9
6,8
6,9
7,8
7,9
8,10
8,11
8,12
8,13
9,10
9,11
9,12
9,13
10,17
10,20
11,14
11,15
11,16
11,17
12,14
12,15
12,16
12,17
13,14
13,15
13,16
13,17
14,18
14,19
14,20
15,18
15,19
15,20
16,18
16,19
16,20
17,18
17,19
18,21
19,21
20,23
20,24
21,22
21,23
21,24
22,25
22,26
23,25
23,26
24,25
24,26
25,34
25,35
26,27
26,28
26,29
27,31
27,37
28,30
28,31
28,32
29,30
29,31
30,33
30,34
30,35
31,33
31,38
31,39
32,33
32,34
32,35
34,36
34,37
35,36
35,37
36,48
36,49
37,38
37,39
38,48
39,40
39,41
40,47
40,48
40,49
41,42
41,43
41,44
42,45
42,50
43,46
43,47
43,48
44,47
44,48
45,49
46,49
47,50

<end>
